10	9	16	3	18	12	18	12	2	10	9	20	4	15	11	1	16	6	11	4
6	4	2	17	8	15	3	20	3	11	4	8	19	5	17	11	12	20	14	14
17	11	1	8	15	6	6	13	10	2	19	20	11	10	11	14	7	8	10	15
19	5	2	17	19	5	4	7	10	17	9	20	11	16	10	13	12	11	5	11
9	10	12	19	9	12	9	14	17	9	4	4	12	9	9	12	1	15	11	9
5	10	5	2	19	16	18	1	14	13	5	11	8	6	8	9	10	7	1	2
13	16	6	11	16	4	20	2	6	1	20	18	5	6	17	20	20	11	16	20
3	8	6	9	5	11	5	1	6	10	7	14	19	7	18	3	10	15	1	12
7	4	2	6	20	18	1	20	3	2	19	20	17	5	3	19	20	6	4	19
